************************************************************************
file with basedata            : n/a
initial value random generator: n/a
************************************************************************
projects                      :  1
jobs (incl. supersource/sink ):  122
horizon                       :  621
RESOURCES
  - renewable                 :  4   R
  - nonrenewable              :  0   N
  - doubly constrained        :  0   D
************************************************************************
PROJECT INFORMATION:
pronr.  #jobs rel.date duedate tardcost  MPM-Time
    1    120      0      108       89      108
************************************************************************
PRECEDENCE RELATIONS:
jobnr.    #modes  #successors   successors
   1        1          3           2   3   4
   2        1          2          10  55
   3        1          3           5   6   7
   4        1          3           9  13  22
   5        1          3           8  12  31
   6        1          3          13  50  82
   7        1          3          10  14  19
   8        1          3          18  21  52
   9        1          3          11  51  68
  10        1          3          15  26  49
  11        1          3          20  23  25
  12        1          3          37  53 102
  13        1          3          30  89 101
  14        1          3          16  17  32
  15        1          3          42  50  76
  16        1          3          33  46  47
  17        1          3          25  54  56
  18        1          3          20  82  94
  19        1          3          24  29  59
  20        1          3          56  63  65
  21        1          3          30  41  48
  22        1          3          33  47 112
  23        1          3          74  88 121
  24        1          3          28  64  71
  25        1          2          27  38
  26        1          3          36  72  99
  27        1          2          79  96
  28        1          2          39  51
  29        1          2          34  40
  30        1          2          36  67
  31        1          2          42  85
  32        1          3          44 114 115
  33        1          3          45  50  65
  34        1          2          35  37
  35        1          3          48  71 104
  36        1          3          56  58  69
  37        1          3          77  78  84
  38        1          3          41  43  47
  39        1          3          40  69  90
  40        1          3          68  80 101
  41        1          3          57  61  84
  42        1          3          51  58  67
  43        1          1         107
  44        1          3          53  61  69
  45        1          3          64  80  92
  46        1          3          74  75  97
  47        1          2          62  70
  48        1          2          57  95
  49        1          3          60  91  98
  50        1          3          52  78  91
  51        1          2          66  87
  52        1          1          81
  53        1          3          72  82  94
  54        1          3          57  79 103
  55        1          3          63  71  93
  56        1          2          84 106
  57        1          1         113
  58        1          1         103
  59        1          3          60  62 117
  60        1          2          61  75
  61        1          2          67  73
  62        1          3          73  75  78
  63        1          1          79
  64        1          2          68  83
  65        1          3          99 101 110
  66        1          3          70  80  88
  67        1          1         118
  68        1          2          81 100
  69        1          1          73
  70        1          3          77  86  90
  71        1          1          81
  72        1          3          83  89 110
  73        1          1          97
  74        1          2          77  85
  75        1          1         102
  76        1          3          87  98 116
  77        1          3          83  92 104
  78        1          3          85  86 119
  79        1          3          86  95 106
  80        1          3          94 109 111
  81        1          1         108
  82        1          1         112
  83        1          1         120
  84        1          2          93 113
  85        1          2          96 103
  86        1          1         105
  87        1          3          88  93 100
  88        1          2          92 111
  89        1          2          95 117
  90        1          3          91  96 100
  91        1          1         119
  92        1          1         119
  93        1          1         107
  94        1          1         108
  95        1          2          97 112
  96        1          2          98  99
  97        1          1         105
  98        1          1         113
  99        1          1         104
 100        1          2         102 107
 101        1          2         105 115
 102        1          1         115
 103        1          1         109
 104        1          2         106 109
 105        1          1         116
 106        1          1         111
 107        1          1         108
 108        1          1         110
 109        1          1         120
 110        1          1         117
 111        1          1         114
 112        1          1         116
 113        1          1         114
 114        1          1         120
 115        1          1         121
 116        1          1         118
 117        1          1         118
 118        1          1         121
 119        1          1         122
 120        1          1         122
 121        1          1         122
 122        1          0        
************************************************************************
REQUESTS/DURATIONS:
jobnr. mode duration  R 1  R 2  R 3  R 4
------------------------------------------------------------------------
  1      1     0    
  2      1     2       6   6
                       2   2
                       2   2
                       1   1
  3      1    10       5   5   5   5   5   5   5   5   5   5
                       5   5   5   5   5   5   5   5   5   5
                       9   9   9   9   9   9   9   9   9   9
                       8   8   8   8   8   8   8   8   8   8
  4      1     7       4   4   4   4   4   4   4
                       1   1   1   1   1   1   1
                       8   8   8   8   8   8   8
                       1   1   1   1   1   1   1
  5      1     5       3   0   3   3   3
                       8   0   8   8   8
                      10   0  10  10  10
                      10   0  10  10  10
  6      1     4       1   1   1   1
                       1   1   1   1
                       3   3   3   3
                       8   8   8   8
  7      1     6       3   3   3   3   0   3
                       1   1   1   1   0   1
                       8   8   8   8   0   8
                       1   1   1   1   0   1
  8      1     2       0   9
                       0   5
                       0   4
                       0   8
  9      1     3       8   8   8
                      10  10  10
                      10  10  10
                       8   8   8
 10      1    10       6   0   6   6   6   6   6   6   6   6
                      10   0  10  10  10  10  10  10  10  10
                       9   0   9   9   9   9   9   9   9   9
                       5   0   5   5   5   5   5   5   5   5
 11      1     4       5   5   5   5
                       8   8   8   8
                       3   3   3   3
                       4   4   4   4
 12      1     8       3   3   3   3   0   3   3   3
                      10  10  10  10   0  10  10  10
                       4   4   4   4   0   4   4   4
                       2   2   2   2   0   2   2   2
 13      1     6       6   6   0   6   0   6
                       6   6   0   6   0   6
                       8   8   0   8   0   8
                       6   6   0   6   0   6
 14      1     6       7   7   7   7   7   7
                       9   9   9   9   9   9
                       8   8   8   8   8   8
                       6   6   6   6   6   6
 15      1     3       2   2   2
                       1   1   1
                      10  10  10
                       1   1   1
 16      1     8       7   7   7   7   7   7   7   7
                       7   7   7   7   7   7   7   7
                       7   7   7   7   7   7   7   7
                       5   5   5   5   5   5   5   5
 17      1     2       2   0
                       1   0
                       5   0
                       2   0
 18      1     3       4   4   4
                       2   2   2
                       6   6   6
                       2   2   2
 19      1     8       5   5   5   5   5   5   5   5
                       6   6   6   6   6   6   6   6
                      10  10  10  10  10  10  10  10
                       3   3   3   3   3   3   3   3
 20      1     7       1   1   1   1   1   1   1
                       1   1   1   1   1   1   1
                       8   8   8   8   8   8   8
                       9   9   9   9   9   9   9
 21      1     5       7   7   7   7   7
                       8   8   8   8   8
                      10  10  10  10  10
                       2   2   2   2   2
 22      1     2       4   4
                       3   3
                       2   2
                       6   6
 23      1     7       7   7   7   7   7   7   7
                       8   8   8   8   8   8   8
                       1   1   1   1   1   1   1
                       7   7   7   7   7   7   7
 24      1     9       7   7   7   7   7   7   7   7   7
                       3   3   3   3   3   3   3   3   3
                       9   9   9   9   9   9   9   9   9
                      10  10  10  10  10  10  10  10  10
 25      1     1      10
                       5
                       4
                       1
 26      1     8       2   2   2   2   2   2   2   2
                       8   8   8   8   8   8   8   8
                       9   9   9   9   9   9   9   9
                       3   3   3   3   3   3   3   3
 27      1     7       8   8   8   8   8   8   8
                       1   1   1   1   1   1   1
                       4   4   4   4   4   4   4
                       4   4   4   4   4   4   4
 28      1     4       9   9   9   9
                       1   1   1   1
                       6   6   6   6
                       4   4   4   4
 29      1     6       1   0   1   1   1   1
                       5   0   5   5   5   5
                       9   0   9   9   9   9
                      10   0  10  10  10  10
 30      1     1       0
                       0
                       0
                       0
 31      1     8       4   4   4   4   4   4   4   4
                       7   7   7   7   7   7   7   7
                       4   4   4   4   4   4   4   4
                       3   3   3   3   3   3   3   3
 32      1     5       1   1   1   1   0
                       6   6   6   6   0
                       1   1   1   1   0
                       4   4   4   4   0
 33      1     8       8   8   8   8   8   8   8   8
                       7   7   7   7   7   7   7   7
                       1   1   1   1   1   1   1   1
                       1   1   1   1   1   1   1   1
 34      1     7       8   8   8   0   8   8   8
                       5   5   5   0   5   5   5
                       5   5   5   0   5   5   5
                       3   3   3   0   3   3   3
 35      1     1       6
                      10
                       4
                       2
 36      1     8       1   1   1   1   1   1   1   1
                       6   6   6   6   6   6   6   6
                       6   6   6   6   6   6   6   6
                       3   3   3   3   3   3   3   3
 37      1     5       8   8   0   8   8
                       2   2   0   2   2
                       1   1   0   1   1
                       4   4   0   4   4
 38      1     7       9   9   9   9   9   9   9
                       4   4   4   4   4   4   4
                      10  10  10  10  10  10  10
                       8   8   8   8   8   8   8
 39      1     2       3   3
                       4   4
                       2   2
                       6   6
 40      1     3       8   8   8
                       4   4   4
                       3   3   3
                       6   6   6
 41      1     4       8   8   8   8
                       6   6   6   6
                       5   5   5   5
                       6   6   6   6
 42      1     4       4   4   4   4
                      10  10  10  10
                       1   1   1   1
                      10  10  10  10
 43      1     1       0
                       0
                       0
                       0
 44      1     4       7   7   7   7
                       3   3   3   3
                       7   7   7   7
                       5   5   5   5
 45      1     1       5
                       3
                       2
                      10
 46      1     9      10  10  10  10  10  10  10  10  10
                       5   5   5   5   5   5   5   5   5
                       9   9   9   9   9   9   9   9   9
                       5   5   5   5   5   5   5   5   5
 47      1     8       6   6   6   6   6   6   6   6
                       8   8   8   8   8   8   8   8
                       3   3   3   3   3   3   3   3
                       3   3   3   3   3   3   3   3
 48      1     8       7   7   7   7   7   7   0   7
                      10  10  10  10  10  10   0  10
                       4   4   4   4   4   4   0   4
                       8   8   8   8   8   8   0   8
 49      1     4       2   2   2   2
                       7   7   7   7
                       5   5   5   5
                       3   3   3   3
 50      1     8       1   1   1   1   1   1   1   1
                       9   9   9   9   9   9   9   9
                       1   1   1   1   1   1   1   1
                       5   5   5   5   5   5   5   5
 51      1     1       6
                       6
                       3
                       8
 52      1     8       9   9   9   9   9   9   9   9
                       5   5   5   5   5   5   5   5
                       1   1   1   1   1   1   1   1
                       8   8   8   8   8   8   8   8
 53      1     4       5   5   5   5
                       6   6   6   6
                       8   8   8   8
                       8   8   8   8
 54      1     2       7   7
                       6   6
                       2   2
                       3   3
 55      1     3       2   2   2
                       6   6   6
                       3   3   3
                      10  10  10
 56      1     6       1   1   1   1   1   1
                       7   7   7   7   7   7
                       5   5   5   5   5   5
                       9   9   9   9   9   9
 57      1     4       2   2   2   2
                       8   8   8   8
                      10  10  10  10
                       8   8   8   8
 58      1     5       6   6   6   6   6
                      10  10  10  10  10
                       4   4   4   4   4
                       9   9   9   9   9
 59      1     4       3   0   3   3
                       7   0   7   7
                       7   0   7   7
                      10   0  10  10
 60      1     5       1   0   0   1   1
                       7   0   0   7   7
                       4   0   0   4   4
                       8   0   0   8   8
 61      1     9       7   7   7   7   7   7   7   7   7
                       2   2   2   2   2   2   2   2   2
                       4   4   4   4   4   4   4   4   4
                       6   6   6   6   6   6   6   6   6
 62      1     8       3   3   3   3   3   3   3   3
                       5   5   5   5   5   5   5   5
                       5   5   5   5   5   5   5   5
                      10  10  10  10  10  10  10  10
 63      1    10       3   3   3   3   3   0   3   3   3   0
                       9   9   9   9   9   0   9   9   9   0
                       4   4   4   4   4   0   4   4   4   0
                       7   7   7   7   7   0   7   7   7   0
 64      1     1       1
                       2
                       9
                       4
 65      1    10       4   4   4   4   4   4   4   4   4   4
                       1   1   1   1   1   1   1   1   1   1
                       5   5   5   5   5   5   5   5   5   5
                       6   6   6   6   6   6   6   6   6   6
 66      1     9       9   9   9   9   9   9   9   9   9
                       4   4   4   4   4   4   4   4   4
                       6   6   6   6   6   6   6   6   6
                       9   9   9   9   9   9   9   9   9
 67      1     7       6   6   6   6   6   6   6
                       6   6   6   6   6   6   6
                       6   6   6   6   6   6   6
                       5   5   5   5   5   5   5
 68      1     1      10
                       8
                       6
                       8
 69      1     1       1
                      10
                       3
                      10
 70      1     6       9   9   9   9   9   0
                       2   2   2   2   2   0
                       3   3   3   3   3   0
                       3   3   3   3   3   0
 71      1     8       0   6   6   0   6   6   6   6
                       0   6   6   0   6   6   6   6
                       0   5   5   0   5   5   5   5
                       0  10  10   0  10  10  10  10
 72      1     6       9   9   9   9   9   9
                       2   2   2   2   2   2
                       5   5   5   5   5   5
                       5   5   5   5   5   5
 73      1     2       4   4
                       3   3
                       1   1
                      10  10
 74      1     2       8   8
                       3   3
                       9   9
                       3   3
 75      1     5       8   8   8   8   8
                       7   7   7   7   7
                       8   8   8   8   8
                       6   6   6   6   6
 76      1     5       4   4   4   4   4
                       7   7   7   7   7
                       2   2   2   2   2
                       7   7   7   7   7
 77      1     3       5   5   5
                       1   1   1
                      10  10  10
                       2   2   2
 78      1     2       7   7
                       3   3
                       5   5
                       9   9
 79      1     7      10  10  10  10  10  10   0
                       6   6   6   6   6   6   0
                       2   2   2   2   2   2   0
                       7   7   7   7   7   7   0
 80      1     1       2
                       9
                       9
                       8
 81      1     5       5   5   5   5   5
                       1   1   1   1   1
                       3   3   3   3   3
                       9   9   9   9   9
 82      1     8       2   2   2   2   2   2   2   2
                      10  10  10  10  10  10  10  10
                       3   3   3   3   3   3   3   3
                       4   4   4   4   4   4   4   4
 83      1     8       7   7   7   7   7   7   7   7
                       9   9   9   9   9   9   9   9
                       7   7   7   7   7   7   7   7
                       8   8   8   8   8   8   8   8
 84      1     7       1   1   0   1   1   1   1
                       1   1   0   1   1   1   1
                       9   9   0   9   9   9   9
                       2   2   0   2   2   2   2
 85      1    10       7   7   7   7   7   7   7   7   7   7
                       8   8   8   8   8   8   8   8   8   8
                       3   3   3   3   3   3   3   3   3   3
                       8   8   8   8   8   8   8   8   8   8
 86      1     5       3   3   3   3   3
                       8   8   8   8   8
                      10  10  10  10  10
                       9   9   9   9   9
 87      1     4       6   6   6   6
                       2   2   2   2
                       2   2   2   2
                       9   9   9   9
 88      1     3       8   8   8
                      10  10  10
                       2   2   2
                       5   5   5
 89      1     1       9
                       5
                       1
                       9
 90      1     9       6   6   6   6   6   6   6   6   6
                       2   2   2   2   2   2   2   2   2
                       8   8   8   8   8   8   8   8   8
                       7   7   7   7   7   7   7   7   7
 91      1     1       6
                       4
                       6
                       6
 92      1     8       9   9   9   9   9   9   9   9
                       8   8   8   8   8   8   8   8
                       3   3   3   3   3   3   3   3
                       7   7   7   7   7   7   7   7
 93      1     1       5
                       7
                       4
                       9
 94      1     8       3   3   3   3   3   0   3   3
                      10  10  10  10  10   0  10  10
                       3   3   3   3   3   0   3   3
                       3   3   3   3   3   0   3   3
 95      1     2       3   3
                       4   4
                       3   3
                       4   4
 96      1    10       9   9   9   9   9   9   9   9   9   9
                       5   5   5   5   5   5   5   5   5   5
                       5   5   5   5   5   5   5   5   5   5
                      10  10  10  10  10  10  10  10  10  10
 97      1     5      10  10  10  10  10
                       9   9   9   9   9
                       3   3   3   3   3
                       7   7   7   7   7
 98      1    10       5   5   5   5   5   5   5   5   5   5
                       1   1   1   1   1   1   1   1   1   1
                       1   1   1   1   1   1   1   1   1   1
                       5   5   5   5   5   5   5   5   5   5
 99      1     3       1   1   1
                      10  10  10
                       4   4   4
                       4   4   4
100      1     7       4   4   4   4   4   4   4
                       7   7   7   7   7   7   7
                       9   9   9   9   9   9   9
                       5   5   5   5   5   5   5
101      1     2       4   4
                       5   5
                       1   1
                       6   6
102      1     8       6   6   6   6   0   6   6   6
                       2   2   2   2   0   2   2   2
                      10  10  10  10   0  10  10  10
                       4   4   4   4   0   4   4   4
103      1     1       6
                       2
                       5
                       9
104      1     8       8   8   8   8   8   8   8   8
                       7   7   7   7   7   7   7   7
                       9   9   9   9   9   9   9   9
                      10  10  10  10  10  10  10  10
105      1     3       8   0   8
                       7   0   7
                       4   0   4
                       4   0   4
106      1     2       2   2
                       2   2
                      10  10
                       1   1
107      1     5       0   5   5   5   5
                       0   4   4   4   4
                       0   7   7   7   7
                       0   8   8   8   8
108      1    10       1   1   1   1   1   1   1   1   1   1
                       1   1   1   1   1   1   1   1   1   1
                       5   5   5   5   5   5   5   5   5   5
                       2   2   2   2   2   2   2   2   2   2
109      1     5       1   1   1   1   1
                       5   5   5   5   5
                       1   1   1   1   1
                      10  10  10  10  10
110      1     8       8   8   8   8   8   0   8   8
                       6   6   6   6   6   0   6   6
                       7   7   7   7   7   0   7   7
                       6   6   6   6   6   0   6   6
111      1     2       9   9
                      10  10
                       4   4
                       1   1
112      1     3       6   6   6
                       6   6   6
                       9   9   9
                       4   4   4
113      1    10       5   5   5   5   5   5   5   5   5   5
                       6   6   6   6   6   6   6   6   6   6
                       6   6   6   6   6   6   6   6   6   6
                       5   5   5   5   5   5   5   5   5   5
114      1    10       1   1   1   1   1   1   1   1   0   1
                       9   9   9   9   9   9   9   9   0   9
                       7   7   7   7   7   7   7   7   0   7
                       6   6   6   6   6   6   6   6   0   6
115      1     2       7   7
                       8   8
                       9   9
                       9   9
116      1     1       2
                       4
                       5
                       5
117      1     1       6
                       4
                       3
                       9
118      1     7       5   5   5   5   5   5   5
                       1   1   1   1   1   1   1
                       8   8   8   8   8   8   8
                       9   9   9   9   9   9   9
119      1     5       1   1   1   1   1
                      10  10  10  10  10
                       1   1   1   1   1
                       2   2   2   2   2
120      1     6       4   4   4   4   4   4
                      10  10  10  10  10  10
                      10  10  10  10  10  10
                       2   2   2   2   2   2
121      1     3       2   2   2
                       7   7   7
                       4   4   4
                       4   4   4
122      1     0    
************************************************************************
RESOURCEAVAILABILITIES:
  R 1  R 2  R 3  R 4

  44  44  44  44  44  44  44  44  44  44  44  44  44  44  44  44  44  44  44  44  44  44  44  44  44  44  44  44  44  44  44  44  44  44  44  44  44  44  44  44  44  44  44  44  44  44  44   0  44  44   0  44  44   0  44  44  44  44  44  44   0  44  44  44  44  44  44  44  44  44  44  44  44  44   0  44  44  44  44  44  44  44  44  44  44  44  44  44  44  44  44  44  44  44  44  44  44  44  44  44  44  44  44  44  44  44  44  44  44  44  44  44  44  44  44  44  44  44  44  44  44  44  44  44  44  44  44  44  44  44  44  44  44  44  44   0  44  44  44  44  44  44  44  44  44  44  44  44  44  44  44  44  44  44  44  44  44  44  44  44  44  44  44  44  44  44  44  44  44  44  44  44  44  44  44  44  44  44   0   0  44  44  44  44  44  44  44  44  44  44  44  44  44  44  44  44  44  44  44  44  44  44  44  44   0  44  44  44  44  44  44  44  44  44  44  44  44  44  44  44  44  44  44  44  44  44  44  44  44  44  44  44  44  44  44  44  44  44  44  44  44  44  44  44  44  44  44   0  44  44  44  44  44  44  44  44  44  44  44  44  44  44  44  44  44  44  44  44  44  44  44  44  44  44  44  44  44  44  44  44  44  44  44   0  44  44  44  44  44  44  44  44  44   0  44  44  44   0  44  44  44  44  44  44  44  44  44  44  44  44  44  44  44  44  44  44  44  44  44  44  44  44  44  44  44  44  44  44  44  44  44  44  44  44  44  44  44  44  44  44  44  44  44  44  44  44   0  44  44  44  44  44  44  44  44  44   0  44  44  44  44  44  44  44  44  44  44  44  44  44  44  44  44  44  44   0  44  44  44  44  44  44  44  44  44  44  44  44  44  44  44  44  44  44  44  44  44  44  44  44  44  44  44  44   0  44  44  44  44  44  44  44  44  44  44  44  44   0  44  44  44  44  44  44  44  44  44   0  44  44  44  44  44  44  44  44  44  44  44  44  44  44  44  44  44  44  44  44  44  44  44  44  44  44  44  44  44  44  44  44  44  44  44  44  44  44  44  44  44  44  44   0  44  44  44   0  44  44  44  44  44  44  44  44  44  44  44  44  44  44  44  44   0  44  44  44  44  44  44  44  44  44  44  44  44  44   0  44  44  44  44  44  44  44  44  44  44  44  44  44  44  44  44  44  44  44  44   0  44  44  44  44  44  44  44  44  44  44  44  44  44   0  44  44   0  44  44  44  44  44  44  44  44  44  44  44  44  44  44  44  44  44  44  44  44  44  44  44  44  44  44  44  44  44  44  44  44  44  44  44  44  44  44  44  44  44  44  44  44  44  44  44  44   0  44  44  44  44  44  44  44  44  44   0  44  44  44  44  44  44  44   0  44  44  44  44  44  44  44  44  44

  41  41  41  41  41  41  41  41  41  41  41  41  41  41  41  41  41  41  41  41  41  41  41  41  41  41  41  41  41  41  41  41  41  41  41  41  41  41  41  41  41  41  41  41  41  41  41   0  41  41   0  41  41   0  41  41  41  41  41  41   0  41  41  41  41  41  41  41  41  41  41  41  41  41   0  41  41  41  41  41  41  41  41  41  41  41  41  41  41  41  41  41  41  41  41  41  41  41  41  41  41  41  41  41  41  41  41  41  41  41  41  41  41  41  41  41  41  41  41  41  41  41  41  41  41  41  41  41  41  41  41  41  41  41  41   0  41  41  41  41  41  41  41  41  41  41  41  41  41  41  41  41  41  41  41  41  41  41  41  41  41  41  41  41  41  41  41  41  41  41  41  41  41  41  41  41  41  41   0   0  41  41  41  41  41  41  41  41  41  41  41  41  41  41  41  41  41  41  41  41  41  41  41  41   0  41  41  41  41  41  41  41  41  41  41  41  41  41  41  41  41  41  41  41  41  41  41  41  41  41  41  41  41  41  41  41  41  41  41  41  41  41  41  41  41  41  41   0  41  41  41  41  41  41  41  41  41  41  41  41  41  41  41  41  41  41  41  41  41  41  41  41  41  41  41  41  41  41  41  41  41  41  41   0  41  41  41  41  41  41  41  41  41   0  41  41  41   0  41  41  41  41  41  41  41  41  41  41  41  41  41  41  41  41  41  41  41  41  41  41  41  41  41  41  41  41  41  41  41  41  41  41  41  41  41  41  41  41  41  41  41  41  41  41  41  41   0  41  41  41  41  41  41  41  41  41   0  41  41  41  41  41  41  41  41  41  41  41  41  41  41  41  41  41  41   0  41  41  41  41  41  41  41  41  41  41  41  41  41  41  41  41  41  41  41  41  41  41  41  41  41  41  41  41   0  41  41  41  41  41  41  41  41  41  41  41  41   0  41  41  41  41  41  41  41  41  41   0  41  41  41  41  41  41  41  41  41  41  41  41  41  41  41  41  41  41  41  41  41  41  41  41  41  41  41  41  41  41  41  41  41  41  41  41  41  41  41  41  41  41  41   0  41  41  41   0  41  41  41  41  41  41  41  41  41  41  41  41  41  41  41  41   0  41  41  41  41  41  41  41  41  41  41  41  41  41   0  41  41  41  41  41  41  41  41  41  41  41  41  41  41  41  41  41  41  41  41   0  41  41  41  41  41  41  41  41  41  41  41  41  41   0  41  41   0  41  41  41  41  41  41  41  41  41  41  41  41  41  41  41  41  41  41  41  41  41  41  41  41  41  41  41  41  41  41  41  41  41  41  41  41  41  41  41  41  41  41  41  41  41  41  41  41   0  41  41  41  41  41  41  41  41  41   0  41  41  41  41  41  41  41   0  41  41  41  41  41  41  41  41  41

  38  38  38  38  38  38  38  38  38  38  38  38  38  38  38  38  38  38  38  38  38  38  38  38  38  38  38  38  38  38  38  38  38  38  38  38  38  38  38  38  38  38  38  38  38  38  38   0  38  38   0  38  38   0  38  38  38  38  38  38   0  38  38  38  38  38  38  38  38  38  38  38  38  38   0  38  38  38  38  38  38  38  38  38  38  38  38  38  38  38  38  38  38  38  38  38  38  38  38  38  38  38  38  38  38  38  38  38  38  38  38  38  38  38  38  38  38  38  38  38  38  38  38  38  38  38  38  38  38  38  38  38  38  38  38   0  38  38  38  38  38  38  38  38  38  38  38  38  38  38  38  38  38  38  38  38  38  38  38  38  38  38  38  38  38  38  38  38  38  38  38  38  38  38  38  38  38  38   0   0  38  38  38  38  38  38  38  38  38  38  38  38  38  38  38  38  38  38  38  38  38  38  38  38   0  38  38  38  38  38  38  38  38  38  38  38  38  38  38  38  38  38  38  38  38  38  38  38  38  38  38  38  38  38  38  38  38  38  38  38  38  38  38  38  38  38  38   0  38  38  38  38  38  38  38  38  38  38  38  38  38  38  38  38  38  38  38  38  38  38  38  38  38  38  38  38  38  38  38  38  38  38  38   0  38  38  38  38  38  38  38  38  38   0  38  38  38   0  38  38  38  38  38  38  38  38  38  38  38  38  38  38  38  38  38  38  38  38  38  38  38  38  38  38  38  38  38  38  38  38  38  38  38  38  38  38  38  38  38  38  38  38  38  38  38  38   0  38  38  38  38  38  38  38  38  38   0  38  38  38  38  38  38  38  38  38  38  38  38  38  38  38  38  38  38   0  38  38  38  38  38  38  38  38  38  38  38  38  38  38  38  38  38  38  38  38  38  38  38  38  38  38  38  38   0  38  38  38  38  38  38  38  38  38  38  38  38   0  38  38  38  38  38  38  38  38  38   0  38  38  38  38  38  38  38  38  38  38  38  38  38  38  38  38  38  38  38  38  38  38  38  38  38  38  38  38  38  38  38  38  38  38  38  38  38  38  38  38  38  38  38   0  38  38  38   0  38  38  38  38  38  38  38  38  38  38  38  38  38  38  38  38   0  38  38  38  38  38  38  38  38  38  38  38  38  38   0  38  38  38  38  38  38  38  38  38  38  38  38  38  38  38  38  38  38  38  38   0  38  38  38  38  38  38  38  38  38  38  38  38  38   0  38  38   0  38  38  38  38  38  38  38  38  38  38  38  38  38  38  38  38  38  38  38  38  38  38  38  38  38  38  38  38  38  38  38  38  38  38  38  38  38  38  38  38  38  38  38  38  38  38  38  38   0  38  38  38  38  38  38  38  38  38   0  38  38  38  38  38  38  38   0  38  38  38  38  38  38  38  38  38

  46  46  46  46  46  46  46  46  46  46  46  46  46  46  46  46  46  46  46  46  46  46  46  46  46  46  46  46  46  46  46  46  46  46  46  46  46  46  46  46  46  46  46  46  46  46  46   0  46  46   0  46  46   0  46  46  46  46  46  46   0  46  46  46  46  46  46  46  46  46  46  46  46  46   0  46  46  46  46  46  46  46  46  46  46  46  46  46  46  46  46  46  46  46  46  46  46  46  46  46  46  46  46  46  46  46  46  46  46  46  46  46  46  46  46  46  46  46  46  46  46  46  46  46  46  46  46  46  46  46  46  46  46  46  46   0  46  46  46  46  46  46  46  46  46  46  46  46  46  46  46  46  46  46  46  46  46  46  46  46  46  46  46  46  46  46  46  46  46  46  46  46  46  46  46  46  46  46   0   0  46  46  46  46  46  46  46  46  46  46  46  46  46  46  46  46  46  46  46  46  46  46  46  46   0  46  46  46  46  46  46  46  46  46  46  46  46  46  46  46  46  46  46  46  46  46  46  46  46  46  46  46  46  46  46  46  46  46  46  46  46  46  46  46  46  46  46   0  46  46  46  46  46  46  46  46  46  46  46  46  46  46  46  46  46  46  46  46  46  46  46  46  46  46  46  46  46  46  46  46  46  46  46   0  46  46  46  46  46  46  46  46  46   0  46  46  46   0  46  46  46  46  46  46  46  46  46  46  46  46  46  46  46  46  46  46  46  46  46  46  46  46  46  46  46  46  46  46  46  46  46  46  46  46  46  46  46  46  46  46  46  46  46  46  46  46   0  46  46  46  46  46  46  46  46  46   0  46  46  46  46  46  46  46  46  46  46  46  46  46  46  46  46  46  46   0  46  46  46  46  46  46  46  46  46  46  46  46  46  46  46  46  46  46  46  46  46  46  46  46  46  46  46  46   0  46  46  46  46  46  46  46  46  46  46  46  46   0  46  46  46  46  46  46  46  46  46   0  46  46  46  46  46  46  46  46  46  46  46  46  46  46  46  46  46  46  46  46  46  46  46  46  46  46  46  46  46  46  46  46  46  46  46  46  46  46  46  46  46  46  46   0  46  46  46   0  46  46  46  46  46  46  46  46  46  46  46  46  46  46  46  46   0  46  46  46  46  46  46  46  46  46  46  46  46  46   0  46  46  46  46  46  46  46  46  46  46  46  46  46  46  46  46  46  46  46  46   0  46  46  46  46  46  46  46  46  46  46  46  46  46   0  46  46   0  46  46  46  46  46  46  46  46  46  46  46  46  46  46  46  46  46  46  46  46  46  46  46  46  46  46  46  46  46  46  46  46  46  46  46  46  46  46  46  46  46  46  46  46  46  46  46  46   0  46  46  46  46  46  46  46  46  46   0  46  46  46  46  46  46  46   0  46  46  46  46  46  46  46  46  46

************************************************************************
